
n_res = 4;
rcap = [19, 18, 348, 428];
rtype = [1, 1, 2, 2];
n_tasks = 100;
modes =  [{1, 2, 3}, {4, 5, 6}, {7, 8, 9}, {10, 11, 12}, {13, 14, 15}, {16, 17, 18}, {19, 20, 21}, {22, 23, 24}, {25, 26, 27}, {28, 29, 30}, {31, 32, 33}, {34, 35, 36}, {37, 38, 39}, {40, 41, 42}, {43, 44, 45}, {46, 47, 48}, {49, 50, 51}, {52, 53, 54}, {55, 56, 57}, {58, 59, 60}, {61, 62, 63}, {64, 65, 66}, {67, 68, 69}, {70, 71, 72}, {73, 74, 75}, {76, 77, 78}, {79, 80, 81}, {82, 83, 84}, {85, 86, 87}, {88, 89, 90}, {91, 92, 93}, {94, 95, 96}, {97, 98, 99}, {100, 101, 102}, {103, 104, 105}, {106, 107, 108}, {109, 110, 111}, {112, 113, 114}, {115, 116, 117}, {118, 119, 120}, {121, 122, 123}, {124, 125, 126}, {127, 128, 129}, {130, 131, 132}, {133, 134, 135}, {136, 137, 138}, {139, 140, 141}, {142, 143, 144}, {145, 146, 147}, {148, 149, 150}, {151, 152, 153}, {154, 155, 156}, {157, 158, 159}, {160, 161, 162}, {163, 164, 165}, {166, 167, 168}, {169, 170, 171}, {172, 173, 174}, {175, 176, 177}, {178, 179, 180}, {181, 182, 183}, {184, 185, 186}, {187, 188, 189}, {190, 191, 192}, {193, 194, 195}, {196, 197, 198}, {199, 200, 201}, {202, 203, 204}, {205, 206, 207}, {208, 209, 210}, {211, 212, 213}, {214, 215, 216}, {217, 218, 219}, {220, 221, 222}, {223, 224, 225}, {226, 227, 228}, {229, 230, 231}, {232, 233, 234}, {235, 236, 237}, {238, 239, 240}, {241, 242, 243}, {244, 245, 246}, {247, 248, 249}, {250, 251, 252}, {253, 254, 255}, {256, 257, 258}, {259, 260, 261}, {262, 263, 264}, {265, 266, 267}, {268, 269, 270}, {271, 272, 273}, {274, 275, 276}, {277, 278, 279}, {280, 281, 282}, {283, 284, 285}, {286, 287, 288}, {289, 290, 291}, {292, 293, 294}, {295, 296, 297}, {298, 299, 300}];
succ =  [{24, 21, 20, 18, 16, 15, 7}, {22, 12, 7, 6}, {22, 21, 20, 18, 7}, {27, 22, 21, 19, 17, 9}, {25, 24, 23, 22, 18, 13}, {42, 32, 30, 26, 25, 23, 21, 20, 19}, {37, 32, 27, 25, 23, 19, 13}, {39, 31, 30, 26, 25, 24, 21, 19}, {37, 32, 26, 23, 13}, {30, 26, 19, 14}, {42, 40, 39, 35, 33, 30, 28, 21}, {42, 40, 37, 36, 35, 33, 31, 29, 28}, {43, 42, 40, 39, 36, 33, 30, 29, 28}, {43, 42, 36, 33, 32, 31, 25}, {42, 40, 36, 31, 29, 28, 26}, {42, 40, 31, 28, 19}, {50, 43, 42, 41, 39, 36, 34, 32, 30}, {32, 19}, {55, 50, 36, 35, 29}, {40, 37, 34, 33, 28}, {46, 37, 36, 29}, {55, 45, 41, 38, 37, 33}, {55, 50, 45, 43, 39, 31}, {55, 50, 45, 42, 34, 33}, {40, 34, 28}, {55, 50, 45, 43, 38, 33}, {55, 48, 46, 43, 34}, {55, 51, 50, 48, 45, 38}, {45, 41, 34}, {51, 48, 46, 45, 38}, {41, 38}, {55, 51, 49, 48, 47, 46}, {51, 49, 48, 47, 46}, {51, 38}, {54, 52, 49, 46, 43}, {38}, {52, 50, 49, 43}, {47, 44}, {60, 58, 54, 53, 52, 51, 49}, {60, 56, 54, 52, 49, 46}, {53, 52, 51, 49, 48}, {60, 58, 56, 54, 53, 49}, {60, 59, 58, 57, 53, 51}, {65, 60, 58, 54, 49}, {73, 60, 58, 53, 49}, {73, 69, 65, 64, 62, 61, 59, 58, 57, 53}, {65, 64, 62, 61, 56, 54, 53, 52}, {70, 69, 64, 61, 60, 59, 57, 54}, {75, 70, 69, 64, 62, 61, 59, 57}, {75, 73, 69, 68, 66, 65, 62, 59, 58}, {70, 67, 65, 64, 62, 61, 56}, {77, 74, 73, 71, 69, 67, 66, 63}, {78, 77, 75, 74, 71, 70, 63}, {77, 74, 73, 71, 68, 67, 63}, {85, 71, 67, 61}, {79, 77, 74, 73, 72, 71, 68}, {77, 76, 74, 72, 67, 66}, {85, 79, 77, 74, 72, 71, 67}, {88, 85, 82, 79, 78, 77, 72, 71}, {85, 81, 75, 71, 68}, {81, 79, 77, 76, 74, 68}, {77, 74, 63}, {88, 82, 80, 79, 76, 72}, {82, 81, 79, 78, 77, 76}, {88, 87, 82, 81, 78, 77}, {100, 91, 88, 87, 85, 84, 82, 81, 80, 79}, {91, 88, 87, 86, 84, 80, 78}, {91, 88, 87, 84, 82, 80, 78}, {86, 82, 81, 78, 76}, {100, 99, 91, 87, 85, 83, 80, 79}, {100, 87, 76}, {100, 98, 97, 91, 90, 86, 84, 81}, {100, 90, 88, 87, 84, 80}, {100, 91, 87, 84, 80}, {100, 97, 84, 83, 79}, {97, 94, 93, 91, 90, 84, 83}, {100, 91, 86, 84, 80}, {100, 99, 94, 93, 90, 89, 83}, {98, 96, 95, 94, 93, 90, 89}, {97, 96, 94, 93, 89}, {99, 96, 94, 93, 89}, {99, 98, 94, 90}, {98, 96, 95, 92}, {99, 95, 89}, {95, 86}, {93, 92}, {98, 97}, {89}, {92}, {92}, {92}, {}, {}, {}, {}, {}, {}, {}, {}, {}];
n_opt = 300;
dur = [3, 6, 10, 3, 5, 6, 1, 5, 7, 1, 8, 10, 4, 6, 7, 2, 5, 8, 2, 7, 8, 1, 4, 5, 4, 4, 8, 3, 8, 8, 3, 3, 9, 5, 6, 7, 5, 7, 9, 1, 3, 7, 2, 3, 4, 4, 7, 10, 4, 6, 7, 4, 6, 8, 3, 5, 9, 5, 5, 5, 3, 5, 10, 4, 6, 9, 1, 3, 10, 2, 6, 9, 1, 3, 9, 4, 6, 7, 4, 7, 9, 7, 7, 10, 1, 7, 10, 2, 3, 7, 6, 8, 10, 4, 5, 8, 7, 8, 8, 3, 4, 5, 1, 3, 4, 2, 4, 6, 3, 4, 5, 3, 5, 10, 2, 6, 8, 1, 4, 7, 3, 3, 7, 2, 2, 9, 2, 2, 5, 3, 6, 8, 3, 3, 5, 1, 6, 7, 5, 7, 9, 3, 7, 8, 5, 5, 7, 3, 9, 10, 2, 4, 10, 5, 7, 9, 3, 7, 7, 7, 8, 10, 2, 8, 9, 2, 3, 6, 1, 6, 7, 1, 2, 8, 3, 7, 8, 3, 5, 5, 1, 4, 6, 2, 4, 8, 4, 4, 5, 1, 2, 3, 3, 5, 8, 6, 9, 10, 6, 8, 10, 3, 8, 9, 1, 4, 8, 2, 4, 8, 3, 4, 10, 2, 7, 9, 1, 3, 4, 1, 6, 8, 2, 6, 10, 1, 1, 9, 5, 9, 9, 1, 3, 10, 2, 7, 9, 7, 8, 9, 1, 6, 7, 2, 4, 6, 6, 8, 9, 1, 2, 7, 3, 4, 8, 2, 5, 9, 2, 9, 10, 3, 4, 7, 2, 4, 8, 1, 3, 7, 6, 9, 9, 1, 3, 8, 7, 9, 10, 8, 9, 10, 3, 4, 9, 1, 4, 6, 3, 5, 6, 4, 5, 6, 3, 4, 9, 3, 6, 10];
rreq = [|0, 4, 0, 0, 3, 3, 0, 1, 1, 3, 3, 0, 3, 3, 0, 3, 2, 0, 0, 0, 0, 1, 0, 1, 0, 0, 0, 4, 4, 0, 3, 3, 1, 0, 0, 0, 2, 0, 0, 4, 4, 4, 0, 0, 0, 0, 0, 0, 4, 0, 2, 4, 0, 2, 4, 3, 1, 0, 0, 2, 3, 0, 0, 4, 4, 0, 3, 2, 0, 3, 3, 2, 1, 0, 1, 1, 0, 0, 0, 3, 0, 2, 0, 0, 0, 0, 2, 2, 0, 1, 0, 0, 0, 4, 2, 2, 0, 0, 1, 4, 4, 4, 4, 2, 0, 5, 0, 0, 4, 0, 4, 0, 4, 0, 3, 0, 0, 3, 1, 1, 0, 3, 0, 0, 1, 0, 4, 0, 0, 0, 3, 0, 5, 4, 0, 5, 5, 5, 4, 4, 2, 4, 4, 3, 5, 5, 0, 0, 3, 0, 0, 2, 2, 0, 3, 2, 4, 0, 0, 0, 0, 5, 5, 0, 3, 3, 0, 2, 0, 3, 3, 0, 0, 0, 0, 1, 0, 1, 1, 0, 0, 3, 2, 2, 2, 2, 0, 1, 1, 3, 0, 0, 5, 0, 3, 5, 4, 2, 2, 1, 0, 3, 2, 2, 0, 0, 0, 0, 3, 0, 0, 0, 2, 2, 0, 1, 4, 4, 0, 0, 4, 0, 0, 2, 2, 2, 0, 1, 4, 0, 3, 0, 0, 0, 2, 0, 1, 0, 3, 0, 4, 0, 4, 5, 3, 3, 4, 4, 0, 4, 4, 0, 3, 0, 0, 3, 2, 0, 0, 0, 0, 0, 0, 0, 0, 0, 1, 0, 3, 3, 0, 3, 0, 0, 0, 3, 0, 0, 5, 0, 0, 0, 5, 4, 0, 0, 0, 0, 0, 0, 0, 5, 5, 0, 3, 0, 2, 0, 0, 0
 |5, 0, 5, 1, 0, 0, 5, 0, 0, 0, 0, 2, 0, 0, 5, 0, 0, 2, 2, 2, 2, 0, 2, 0, 2, 2, 2, 0, 0, 3, 0, 0, 0, 4, 2, 2, 0, 4, 3, 0, 0, 0, 3, 2, 2, 4, 4, 4, 0, 4, 0, 0, 3, 0, 0, 0, 0, 4, 3, 0, 0, 4, 4, 0, 0, 3, 0, 0, 2, 0, 0, 0, 0, 1, 0, 0, 2, 1, 4, 0, 2, 0, 2, 2, 1, 1, 0, 0, 4, 0, 2, 2, 2, 0, 0, 0, 4, 2, 0, 0, 0, 0, 0, 0, 2, 0, 4, 2, 0, 3, 0, 4, 0, 3, 0, 2, 2, 0, 0, 0, 1, 0, 1, 5, 0, 3, 0, 3, 2, 4, 0, 3, 0, 0, 1, 0, 0, 0, 0, 0, 0, 0, 0, 0, 0, 0, 2, 1, 0, 1, 4, 0, 0, 3, 0, 0, 0, 2, 2, 4, 4, 0, 0, 1, 0, 0, 1, 0, 4, 0, 0, 5, 3, 3, 5, 0, 3, 0, 0, 2, 4, 0, 0, 0, 0, 0, 4, 0, 0, 0, 2, 2, 0, 3, 0, 0, 0, 0, 0, 0, 4, 0, 0, 0, 3, 3, 3, 4, 0, 3, 4, 3, 0, 0, 4, 0, 0, 0, 2, 3, 0, 2, 4, 0, 0, 0, 3, 0, 0, 1, 0, 4, 4, 4, 0, 3, 0, 5, 0, 4, 0, 2, 0, 0, 0, 0, 0, 0, 2, 0, 0, 5, 0, 3, 1, 0, 0, 2, 2, 1, 1, 3, 2, 2, 3, 2, 0, 3, 0, 0, 5, 0, 3, 2, 1, 0, 3, 3, 0, 3, 2, 2, 0, 0, 1, 3, 3, 2, 2, 2, 2, 0, 0, 2, 0, 5, 0, 2, 2, 1
 |0, 4, 2, 0, 0, 0, 0, 5, 0, 0, 0, 8, 4, 0, 1, 0, 0, 2, 0, 8, 7, 4, 0, 2, 0, 6, 0, 3, 0, 0, 0, 3, 0, 5, 0, 5, 0, 0, 0, 0, 0, 0, 8, 6, 0, 5, 0, 0, 6, 0, 4, 4, 3, 0, 0, 8, 8, 6, 0, 0, 5, 0, 2, 0, 5, 0, 0, 0, 0, 8, 7, 5, 9, 0, 5, 0, 0, 3, 3, 0, 3, 5, 3, 0, 0, 0, 0, 6, 5, 0, 8, 0, 0, 4, 4, 0, 6, 0, 3, 0, 0, 0, 0, 0, 4, 10, 0, 0, 6, 4, 0, 0, 0, 2, 0, 0, 4, 0, 6, 0, 9, 9, 8, 10, 9, 0, 0, 5, 0, 0, 0, 1, 0, 8, 7, 0, 0, 0, 0, 0, 0, 7, 4, 3, 0, 5, 5, 7, 0, 4, 0, 0, 0, 6, 0, 0, 0, 2, 0, 9, 0, 0, 6, 4, 0, 8, 0, 0, 4, 4, 3, 2, 0, 0, 10, 0, 7, 0, 0, 4, 0, 0, 2, 10, 8, 7, 6, 5, 4, 6, 0, 0, 0, 5, 0, 0, 0, 0, 0, 0, 0, 0, 5, 4, 5, 4, 0, 6, 5, 3, 7, 0, 7, 0, 0, 3, 0, 0, 0, 0, 0, 0, 0, 0, 8, 10, 6, 0, 0, 0, 0, 0, 2, 0, 0, 3, 2, 9, 0, 0, 0, 4, 2, 0, 4, 3, 3, 0, 2, 6, 5, 0, 0, 8, 0, 6, 6, 6, 6, 5, 0, 0, 0, 3, 0, 3, 0, 6, 3, 2, 0, 0, 0, 0, 0, 0, 3, 1, 0, 0, 4, 1, 6, 4, 0, 0, 6, 4, 0, 0, 4, 2, 0, 1, 0, 0, 0, 0, 3, 3
 |7, 0, 0, 4, 4, 3, 8, 0, 5, 3, 2, 0, 0, 7, 0, 9, 9, 0, 10, 0, 0, 0, 7, 0, 3, 0, 2, 0, 6, 6, 8, 0, 4, 0, 2, 0, 9, 9, 9, 9, 8, 7, 0, 0, 6, 0, 6, 4, 0, 5, 0, 0, 0, 9, 7, 0, 0, 0, 8, 6, 0, 4, 0, 8, 0, 5, 1, 1, 1, 0, 0, 0, 0, 5, 0, 10, 8, 0, 0, 7, 0, 0, 0, 5, 7, 6, 7, 0, 0, 4, 0, 7, 5, 0, 0, 5, 0, 5, 0, 7, 6, 5, 9, 8, 0, 0, 2, 2, 0, 0, 4, 8, 7, 0, 8, 7, 0, 8, 0, 7, 0, 0, 0, 0, 0, 4, 9, 0, 9, 7, 7, 0, 8, 0, 0, 5, 4, 3, 7, 6, 7, 0, 0, 0, 8, 0, 0, 0, 5, 0, 3, 2, 1, 0, 5, 5, 3, 0, 1, 0, 3, 3, 0, 0, 4, 0, 5, 5, 0, 0, 0, 0, 5, 4, 0, 8, 0, 8, 7, 0, 6, 4, 0, 0, 0, 0, 0, 0, 0, 0, 5, 3, 6, 0, 4, 4, 4, 4, 7, 5, 4, 10, 0, 0, 0, 0, 2, 0, 0, 0, 0, 4, 0, 6, 4, 0, 8, 6, 4, 7, 4, 3, 5, 5, 0, 0, 0, 4, 5, 4, 2, 5, 0, 1, 7, 0, 0, 0, 6, 6, 5, 0, 0, 6, 0, 0, 0, 7, 0, 0, 0, 1, 5, 0, 1, 0, 0, 0, 0, 0, 5, 8, 5, 0, 5, 0, 4, 0, 0, 0, 9, 8, 8, 8, 7, 7, 0, 0, 4, 7, 0, 0, 0, 0, 1, 6, 0, 0, 8, 7, 0, 0, 6, 0, 9, 6, 3, 3, 0, 0|];